Example_III/other_models/116/model_116_Log_1_cores.log

Gurobi 9.0.2 (linux64) logging started Mon Sep 14 07:17:24 2020

Changed value of parameter LogFile to model_116_Log_1_cores.log
   Prev:   Default: 
Changed value of parameter Threads to 1
   Prev: 0  Min: 0  Max: 1024  Default: 0
Gurobi Optimizer version 9.0.2 build v9.0.2rc0 (linux64)
Optimize a model with 10707 rows, 38880 columns and 175045 nonzeros
Model fingerprint: 0x4c141c27
Variable types: 0 continuous, 38880 integer (38880 binary)
Coefficient statistics:
  Matrix range     [1e+00, 6e+01]
  Objective range  [1e+00, 1e+00]
  Bounds range     [1e+00, 1e+00]
  RHS range        [1e+00, 3e+02]
Presolve removed 647 rows and 614 columns
Presolve time: 0.32s
Presolved: 10060 rows, 38266 columns, 163896 nonzeros
Variable types: 0 continuous, 38266 integer (38266 binary)

Root relaxation: objective 1.000000e+00, 2406 iterations, 0.10 seconds

    Nodes    |    Current Node    |     Objective Bounds      |     Work
 Expl Unexpl |  Obj  Depth IntInf | Incumbent    BestBd   Gap | It/Node Time

     0     0    1.00000    0  223          -    1.00000      -     -    2s
     0     0    1.00000    0  412          -    1.00000      -     -    3s
     0     0    1.00000    0  405          -    1.00000      -     -    3s
     0     0    1.00000    0  214          -    1.00000      -     -    3s
     0     0    1.00000    0  213          -    1.00000      -     -    4s
     0     0    1.00000    0  225          -    1.00000      -     -    4s
     0     0    1.00000    0  647          -    1.00000      -     -    4s
     0     0    1.00000    0  224          -    1.00000      -     -    5s
     0     0    1.00000    0  183          -    1.00000      -     -    6s
     0     2    1.00000    0  166          -    1.00000      -     -    8s
    93    13    1.00000   24  315          -    1.00000      -   552   10s
   357    30    1.00000   70  205          -    1.00000      -   557   15s
   548    19    1.00000   75  309          -    1.00000      -   556   20s
   798    53    1.21765  135  175          -    1.00000      -   513   25s
  1022   259    1.00000   97  183          -    1.00000      -   414   30s
  1028   263    1.00000  129  179          -    1.00000      -   412   35s
  1036   268    2.10417  206  191          -    1.00000      -   409   40s
  1043   273    1.21765  170  202          -    1.00000      -   406   45s
  1046   275    1.22181  191  148          -    1.00000      -   405   50s
  1061   273    1.00000   20  239          -    1.00000      -   336   55s
  1119   256    1.00000   43  207          -    1.00000      -   324   60s
  1254   292    1.00000   56  212          -    1.00000      -   293   65s
  1402   391    1.00000  102  172          -    1.00000      -   269   70s
  1482   444    1.00000  176  168          -    1.00000      -   260   75s
  1607   523    1.02083  222  130          -    1.00000      -   251   80s
  1737   583    1.02083  258  177          -    1.00000      -   246   85s
  1802   627    1.31427  263  217          -    1.00000      -   256   90s
  2116   914    1.23571  363   54          -    1.00000      -   229   95s
  2443  1222    4.02273  469  210          -    1.00000      -   205  100s
  2579  1358    5.00000  521  236          -    1.00000      -   202  105s
  2894  1662    5.00000  626   22          -    1.00000      -   187  110s
* 2931  1197             638       5.0000000    1.00000  80.0%   184  110s
H 2949  1100                       4.0000000    1.00000  75.0%   183  111s
H 2976   442                       2.0000000    1.00000  50.0%   183  113s
  2978   445    1.00000   85  183    2.00000    1.00000  50.0%   183  116s
  2981   447    1.00000  191  234    2.00000    1.00000  50.0%   182  120s
  2984   449    1.00000   68  198    2.00000    1.00000  50.0%   182  125s
  2987   451    1.00000  179  138    2.00000    1.00000  50.0%   182  131s
  2989   452    1.00000   73  139    2.00000    1.00000  50.0%   182  135s
  2993   455    1.00000  197  165    2.00000    1.00000  50.0%   182  142s
  2995   456    1.00000   67  147    2.00000    1.00000  50.0%   182  146s
  2997   458    1.00000  230  193    2.00000    1.00000  50.0%   182  150s
  2999   459    1.00000   69  217    2.00000    1.00000  50.0%   181  157s
  3001   460    1.00000   71  180    2.00000    1.00000  50.0%   181  160s
  3006   464    1.00000   28  185    2.00000    1.00000  50.0%   301  165s
  3021   466    1.00000   34  275    2.00000    1.00000  50.0%   301  170s
  3068   460    1.00000   58  195    2.00000    1.00000  50.0%   298  175s
  3109   450    1.00000   37  232    2.00000    1.00000  50.0%   296  180s
  3213   451    1.00000   83  210    2.00000    1.00000  50.0%   288  185s
* 3369   321             161       1.0000000    1.00000  0.00%   275  189s

Cutting planes:
  Gomory: 3
  Cover: 87
  Clique: 90
  MIR: 18
  StrongCG: 21
  Flow cover: 68
  Inf proof: 1
  Zero half: 13
  RLT: 2

Explored 3370 nodes (1453168 simplex iterations) in 189.24 seconds
Thread count was 1 (of 80 available processors)

Solution count 4: 1 2 4 5 

Optimal solution found (tolerance 1.00e-04)
Best objective 1.000000000000e+00, best bound 1.000000000000e+00, gap 0.0000%
